NAME : 0Farmland
COMMENT :  200
TYPE : TSP
DIMENSION : 200
EDGE_WEIGHT_TYPE : ATT
NODE_COORD_SECTION
1 0.64 0.69
2 0.14 0.8
3 0.94 0.77
4 0.48 0.72
5 0.88 0.48
6 0.82 0.72
7 0.62 0.45
8 0.99 0.96
9 0.79 0.77
10 0.18 0.59
11 0.08 0.34
12 0.96 0.91
13 0.42 0.88
14 0.9 0.97
15 0.61 0.85
16 0.48 0.57
17 0.25 0.29
18 0.63 0.05
19 0.79 0.32
20 0.93 0.33
21 0.68 0.04
22 0.79 0.81
23 0.58 0.66
24 0.67 0.87
25 0.66 0.68
26 0.29 0.14
27 0.59 0.5
28 0.24 0.96
29 0.65 0.07
30 0.88 0.6
31 0.88 0.99
32 0.72 0.96
33 0.38 0.65
34 0.9 0.59
35 0.38 0.86
36 0.51 0.12
37 0.85 0.72
38 0.03 0.01
39 0.77 0.28
40 0.92 0.2
41 0.51 0.94
42 0.42 0.4
43 0.63 0.92
44 0.29 0.92
45 0.97 0.59
46 0.91 0.47
47 0.87 0.74
48 0.54 0.85
49 0.45 0.2
50 0.13 0.01
51 0.54 0.76
52 0.4 0.5
53 0.63 0.53
54 0.52 0.98
55 0.91 0.73
56 0.81 0.77
57 0.81 0.56
58 0.97 0.91
59 0.2 0.45
60 0.21 0.07
61 0.36 0.43
62 0.13 0.23
63 0.2 0.79
64 0.81 0.19
65 0.15 0.83
66 0.37 0.55
67 0.93 0.41
68 0.11 0.04
69 0.37 0.9
70 0.56 0.09
71 0.56 0.5
72 0.43 0.43
73 0.63 0.77
74 0.78 0.07
75 0.56 0.24
76 0.67 0.77
77 0.68 0.34
78 0.31 0.11
79 0.83 0.91
80 0.92 0.53
81 0.39 0.17
82 0.38 0.64
83 0.67 0.1
84 0.12 0.44
85 0.34 0.86
86 0.11 0.98
87 0.77 0.12
88 0.35 0.08
89 0.51 0.24
90 0.95 0.95
91 0.12 0.8
92 0.58 0.23
93 0.37 0.42
94 0.82 0.41
95 0.28 0.86
96 0.87 0.45
97 0.58 0.75
98 0.84 0.25
99 0.77 0.43
100 0.41 0.92
101 0.81 0.96
102 0.84 0.27
103 0.92 1.0
104 0.39 0.08
105 0.63 0.16
106 0.41 0.02
107 0.56 0.43
108 0.34 0.86
109 0.3 0.84
110 0.54 0.77
111 0.79 0.22
112 0.16 0.84
113 0.76 0.56
114 0.23 0.76
115 0.22 0.03
116 0.31 0.95
117 0.16 0.91
118 0.04 0.98
119 0.65 0.38
120 0.87 0.9
121 0.66 0.72
122 0.1 0.14
123 0.1 0.31
124 0.39 0.06
125 0.87 0.28
126 0.98 0.39
127 0.75 0.44
128 0.63 0.47
129 0.27 0.37
130 0.28 0.61
131 0.0 0.56
132 0.49 0.59
133 0.77 0.14
134 0.11 0.65
135 0.59 0.1
136 0.49 0.46
137 0.58 0.74
138 0.79 0.14
139 0.31 0.72
140 0.11 0.68
141 0.15 0.17
142 0.37 0.38
143 0.83 0.42
144 0.76 0.64
145 0.92 0.35
146 0.2 0.74
147 0.48 0.61
148 0.31 0.48
149 0.42 0.98
150 0.71 0.89
151 0.48 0.94
152 0.76 0.5
153 0.35 0.97
154 0.48 0.32
155 0.03 0.9
156 0.34 0.86
157 0.07 0.12
158 0.27 0.17
159 0.94 0.91
160 0.32 0.23
161 0.74 0.93
162 0.46 0.89
163 0.26 0.84
164 0.3 0.37
165 0.24 0.96
166 0.97 0.23
167 0.2 0.23
168 0.54 0.92
169 0.6 0.78
170 0.19 0.63
171 0.26 0.75
172 0.41 0.86
173 0.74 0.07
174 0.47 0.53
175 0.51 0.33
176 0.16 0.19
177 0.75 0.05
178 0.01 0.64
179 0.23 0.84
180 0.44 0.95
181 0.38 0.6
182 0.2 0.26
183 0.67 0.78
184 0.41 0.02
185 0.03 0.16
186 0.4 0.14
187 0.95 0.39
188 0.02 0.79
189 0.48 0.96
190 0.74 0.29
191 0.95 0.54
192 0.3 0.46
193 0.25 0.19
194 0.7 0.36
195 0.15 0.05
196 0.2 0.88
197 0.99 0.09
198 0.5 0.77
199 0.44 0.8
200 0.73 0.6
EOF